NAME : n20w160.001.347.tour
COMMENT : Length = 347
COMMENT : Found by LKH [Keld Helsgaun] Tue Nov  7 19:38:45 2017
TYPE : TOUR
DIMENSION : 21
TOUR_SECTION
1
14
20
11
17
15
12
5
6
2
8
7
4
13
3
10
16
21
19
9
18
-1
EOF
